0a1
> (set-option :lookahead-split true)
5a7,13
> 
> (set-option :lookahead-score-deep true)
> (set-option :split-num 16)
> (set-option :output-dir "splits_here")
> 
> (set-option :split-format-length "brief")
> (set-option :split-format smt2)
